Maximize
 z: 16 x1 + 13 x2 + 18 x3 + 12 x4 + 10 x5 + 10 x6 + 11 x7 + 18 x8 + 16 x9 + 6 x10 + 13 x11 + 7 x12 + 9 x13 + 6 x14 + 16 x15 + 18 x16 + 15 x17 + 15 x18 + 6 x19 + 6 x20 + 8 x21 + 6 x22 + 15 x23 + 5 x24 + 12 x25 + 13 x26 + 14 x27 + 13 x28 + 5 x29 + 7 x30 + 8 x31 + 14 x32 + 16 x33 + 17 x34 + 12 x35 + 9 x36 + 11 x37 + 7 x38 + 15 x39 + 12 x40 + 9 x41 + 8 x42 + 19 x43 + 8 x44 + 7 x45 + 7 x46 + 10 x47 + 9 x48 + 14 x49 + 8 x50 + 11 x51 + 13 x52 + 13 x53 + 10 x54 + 7 x55 + 10 x56 + 6 x57 + 16 x58 + 15 x59 + 9 x60 + 16 x61 + 16 x62 + 18 x63 + 15 x64 + 14 x65 + 14 x66 + 12 x67 + 14 x68 + 8 x69 + 17 x70 + 7 x71 + 13 x72 + 10 x73 + 13 x74 + 16 x75 + 7 x76 + 7 x77 + 13 x78 + 12 x79 + 8 x80 + 9 x81 + 7 x82 + 14 x83 + 16 x84 + 11 x85 + 18 x86 + 8 x87 + 11 x88 + 7 x89 + 6 x90 + 15 x91 + 17 x92 + 8 x93 + 11 x94 + 13 x95 + 12 x96 + 14 x97 + 6 x98 + 11 x99 + 8 x100 + 7 x101 + 17 x102 + 9 x103 + 13 x104 + 12 x105 + 12 x106 + 15 x107 + 5 x108 + 12 x109 + 14 x110 + 17 x111 + 18 x112 + 12 x113 + 17 x114 + 6 x115 + 10 x116 + 9 x117 + 7 x118 + 10 x119 + 14 x120 + 10 x121 + 10 x122 + 14 x123 + 6 x124 + 8 x125 + 13 x126 + 9 x127 + 11 x128 + 14 x129 + 19 x130 + 14 x131 + 8 x132 + 5 x133 + 19 x134 + 10 x135 + 8 x136 + 6 x137 + 14 x138 + 7 x139 + 9 x140 + 10 x141 + 11 x142 + 12 x143 + 14 x144 + 6 x145 + 16 x146 + 5 x147 + 5 x148 + 18 x149 + 7 x150 + 13 x151 + 9 x152 + 11 x153 + 8 x154 + 9 x155 + 11 x156 + 16 x157 + 6 x158 + 10 x159 + 16 x160 + 13 x161 + 18 x162 + 12 x163 + 11 x164 + 11 x165 + 10 x166 + 18 x167 + 6 x168 + 7 x169 + 11 x170 + 9 x171 + 13 x172 + 7 x173 + 10 x174 + 10 x175 + 19 x176 + 11 x177 + 11 x178 + 9 x179 + 17 x180 + 13 x181 + 14 x182 + 6 x183 + 8 x184 + 9 x185 + 15 x186 + 10 x187 + 9 x188 + 7 x189 + 15 x190 + 11 x191 + 6 x192 + 16 x193 + 16 x194 + 14 x195 + 5 x196 + 21 x197 + 9 x198 + 14 x199 + 10 x200 + 7 x201 + 11 x202 + 10 x203 + 18 x204 + 15 x205 + 7 x206 + 15 x207 + 15 x208 + 11 x209 + 8 x210 + 5 x211 + 6 x212 + 7 x213 + 12 x214 + 8 x215 + 14 x216 + 6 x217 + 10 x218 + 10 x219 + 6 x220 + 11 x221 + 13 x222 + 14 x223 + 10 x224 + 11 x225 + 12 x226 + 11 x227 + 13 x228 + 15 x229 + 14 x230 + 6 x231 + 9 x232 + 8 x233 + 9 x234 + 13 x235 + 11 x236 + 9 x237 + 15 x238 + 14 x239 + 10 x240 + 5 x241 + 16 x242 + 15 x243 + 9 x244 + 11 x245 + 13 x246 + 17 x247 + 16 x248 + 12 x249 + 14 x250 + 11 x251 + 17 x252 + 9 x253 + 8 x254 + 11 x255 + 13 x256 + 16 x257 + 13 x258 + 12 x259 + 10 x260 + 16 x261 + 17 x262 + 16 x263 + 13 x264 + 8 x265 + 8 x266 + 14 x267 + 9 x268 + 16 x269 + 17 x270 + 5 x271 + 14 x272 + 6 x273 + 18 x274 + 7 x275 + 13 x276 + 8 x277 + 5 x278 + 14 x279 + 7 x280 + 15 x281 + 18 x282 + 11 x283 + 7 x284 + 10 x285 + 6 x286 + 15 x287 + 12 x288 + 8 x289 + 13 x290 + 9 x291 + 12 x292 + 12 x293 + 12 x294 + 11 x295 + 16 x296 + 9 x297 + 17 x298 + 6 x299 + 16 x300 
Subject To
 poids: 598 x1 + 598 x2 + 598 x3 + 598 x4 + 598 x5 + 598 x6 + 598 x7 + 598 x8 + 598 x9 + 598 x10 + 598 x11 + 598 x12 + 598 x13 + 598 x14 + 598 x15 + 598 x16 + 598 x17 + 598 x18 + 598 x19 + 598 x20 + 598 x21 + 598 x22 + 598 x23 + 598 x24 + 598 x25 + 598 x26 + 598 x27 + 598 x28 + 598 x29 + 598 x30 + 598 x31 + 598 x32 + 598 x33 + 598 x34 + 598 x35 + 598 x36 + 598 x37 + 598 x38 + 598 x39 + 598 x40 + 598 x41 + 598 x42 + 598 x43 + 598 x44 + 598 x45 + 598 x46 + 598 x47 + 598 x48 + 598 x49 + 598 x50 + 598 x51 + 598 x52 + 598 x53 + 598 x54 + 598 x55 + 598 x56 + 598 x57 + 598 x58 + 598 x59 + 598 x60 + 598 x61 + 598 x62 + 598 x63 + 598 x64 + 598 x65 + 598 x66 + 598 x67 + 598 x68 + 598 x69 + 598 x70 + 598 x71 + 598 x72 + 598 x73 + 598 x74 + 598 x75 + 598 x76 + 598 x77 + 598 x78 + 598 x79 + 598 x80 + 598 x81 + 598 x82 + 598 x83 + 598 x84 + 598 x85 + 598 x86 + 598 x87 + 598 x88 + 598 x89 + 598 x90 + 598 x91 + 598 x92 + 598 x93 + 598 x94 + 598 x95 + 598 x96 + 598 x97 + 598 x98 + 598 x99 + 598 x100 + 598 x101 + 598 x102 + 598 x103 + 598 x104 + 598 x105 + 598 x106 + 598 x107 + 598 x108 + 598 x109 + 598 x110 + 598 x111 + 598 x112 + 598 x113 + 598 x114 + 598 x115 + 598 x116 + 598 x117 + 598 x118 + 598 x119 + 598 x120 + 598 x121 + 598 x122 + 598 x123 + 598 x124 + 598 x125 + 598 x126 + 598 x127 + 598 x128 + 598 x129 + 598 x130 + 598 x131 + 598 x132 + 598 x133 + 598 x134 + 598 x135 + 598 x136 + 598 x137 + 598 x138 + 598 x139 + 598 x140 + 598 x141 + 598 x142 + 598 x143 + 598 x144 + 598 x145 + 598 x146 + 598 x147 + 598 x148 + 598 x149 + 598 x150 + 598 x151 + 598 x152 + 598 x153 + 598 x154 + 598 x155 + 598 x156 + 598 x157 + 598 x158 + 598 x159 + 598 x160 + 598 x161 + 598 x162 + 598 x163 + 598 x164 + 598 x165 + 598 x166 + 598 x167 + 598 x168 + 598 x169 + 598 x170 + 598 x171 + 598 x172 + 598 x173 + 598 x174 + 598 x175 + 598 x176 + 598 x177 + 598 x178 + 598 x179 + 598 x180 + 598 x181 + 598 x182 + 598 x183 + 598 x184 + 598 x185 + 598 x186 + 598 x187 + 598 x188 + 598 x189 + 598 x190 + 598 x191 + 598 x192 + 598 x193 + 598 x194 + 598 x195 + 598 x196 + 598 x197 + 598 x198 + 598 x199 + 598 x200 + 598 x201 + 598 x202 + 598 x203 + 598 x204 + 598 x205 + 598 x206 + 598 x207 + 598 x208 + 598 x209 + 598 x210 + 598 x211 + 598 x212 + 598 x213 + 598 x214 + 598 x215 + 598 x216 + 598 x217 + 598 x218 + 598 x219 + 598 x220 + 598 x221 + 598 x222 + 598 x223 + 598 x224 + 598 x225 + 598 x226 + 598 x227 + 598 x228 + 598 x229 + 598 x230 + 598 x231 + 598 x232 + 598 x233 + 598 x234 + 598 x235 + 598 x236 + 598 x237 + 598 x238 + 598 x239 + 598 x240 + 598 x241 + 598 x242 + 598 x243 + 598 x244 + 598 x245 + 598 x246 + 598 x247 + 598 x248 + 598 x249 + 598 x250 + 598 x251 + 598 x252 + 598 x253 + 598 x254 + 598 x255 + 598 x256 + 598 x257 + 598 x258 + 598 x259 + 598 x260 + 598 x261 + 598 x262 + 598 x263 + 598 x264 + 598 x265 + 598 x266 + 598 x267 + 598 x268 + 598 x269 + 598 x270 + 598 x271 + 598 x272 + 598 x273 + 598 x274 + 598 x275 + 598 x276 + 598 x277 + 598 x278 + 598 x279 + 598 x280 + 598 x281 + 598 x282 + 598 x283 + 598 x284 + 598 x285 + 598 x286 + 598 x287 + 598 x288 + 598 x289 + 598 x290 + 598 x291 + 598 x292 + 598 x293 + 598 x294 + 598 x295 + 598 x296 + 598 x297 + 598 x298 + 598 x299 + 598 x300 <= 103716
Binaries
 x1
 x2
 x3
 x4
 x5
 x6
 x7
 x8
 x9
 x10
 x11
 x12
 x13
 x14
 x15
 x16
 x17
 x18
 x19
 x20
 x21
 x22
 x23
 x24
 x25
 x26
 x27
 x28
 x29
 x30
 x31
 x32
 x33
 x34
 x35
 x36
 x37
 x38
 x39
 x40
 x41
 x42
 x43
 x44
 x45
 x46
 x47
 x48
 x49
 x50
 x51
 x52
 x53
 x54
 x55
 x56
 x57
 x58
 x59
 x60
 x61
 x62
 x63
 x64
 x65
 x66
 x67
 x68
 x69
 x70
 x71
 x72
 x73
 x74
 x75
 x76
 x77
 x78
 x79
 x80
 x81
 x82
 x83
 x84
 x85
 x86
 x87
 x88
 x89
 x90
 x91
 x92
 x93
 x94
 x95
 x96
 x97
 x98
 x99
 x100
 x101
 x102
 x103
 x104
 x105
 x106
 x107
 x108
 x109
 x110
 x111
 x112
 x113
 x114
 x115
 x116
 x117
 x118
 x119
 x120
 x121
 x122
 x123
 x124
 x125
 x126
 x127
 x128
 x129
 x130
 x131
 x132
 x133
 x134
 x135
 x136
 x137
 x138
 x139
 x140
 x141
 x142
 x143
 x144
 x145
 x146
 x147
 x148
 x149
 x150
 x151
 x152
 x153
 x154
 x155
 x156
 x157
 x158
 x159
 x160
 x161
 x162
 x163
 x164
 x165
 x166
 x167
 x168
 x169
 x170
 x171
 x172
 x173
 x174
 x175
 x176
 x177
 x178
 x179
 x180
 x181
 x182
 x183
 x184
 x185
 x186
 x187
 x188
 x189
 x190
 x191
 x192
 x193
 x194
 x195
 x196
 x197
 x198
 x199
 x200
 x201
 x202
 x203
 x204
 x205
 x206
 x207
 x208
 x209
 x210
 x211
 x212
 x213
 x214
 x215
 x216
 x217
 x218
 x219
 x220
 x221
 x222
 x223
 x224
 x225
 x226
 x227
 x228
 x229
 x230
 x231
 x232
 x233
 x234
 x235
 x236
 x237
 x238
 x239
 x240
 x241
 x242
 x243
 x244
 x245
 x246
 x247
 x248
 x249
 x250
 x251
 x252
 x253
 x254
 x255
 x256
 x257
 x258
 x259
 x260
 x261
 x262
 x263
 x264
 x265
 x266
 x267
 x268
 x269
 x270
 x271
 x272
 x273
 x274
 x275
 x276
 x277
 x278
 x279
 x280
 x281
 x282
 x283
 x284
 x285
 x286
 x287
 x288
 x289
 x290
 x291
 x292
 x293
 x294
 x295
 x296
 x297
 x298
 x299
 x300
End